decision_x1=[0,2];
decision_x2=[0,2];
decision_x3=[0,2];
decision_x4=[0,2];
decision_x5=[0,2];
decision_x6=[0,2];
decision_x7=[0,2];
decision_x8=[0,2];
decision_x9=[0,2];
decision_x10=[0,2];
decision_x11=[0,2];
decision_x12=[0,2];
random_y1=[0,2];
random_y2=[0,2];
random_y3=[0,2];
constraint_x2_x1=[
0,0,1.5|
0,1,3.7|
0,2,0.41|
1,0,7.8|
1,1,9.5|
1,2,3.3|
2,0,2.5|
2,1,2.2|
2,2,6.3|
];
constraint_x3_x1=[
0,0,9.1|
0,1,4.9|
0,2,4.8|
1,0,0.083|
1,1,7.7|
1,2,1.3|
2,0,6.7|
2,1,4|
2,2,1.8|
];
constraint_x3_x2=[
0,0,7.3|
0,1,9.8|
0,2,4.9|
1,0,6.7|
1,1,9.4|
1,2,2|
2,0,5.9|
2,1,4.6|
2,2,6.4|
];
constraint_x4_x2=[
0,0,2.3|
0,1,9.4|
0,2,2.5|
1,0,6.9|
1,1,5|
1,2,8.4|
2,0,3.9|
2,1,4.7|
2,2,0.74|
];
constraint_x4_x3=[
0,0,5.3|
0,1,3.1|
0,2,8.8|
1,0,9|
1,1,2|
1,2,2.4|
2,0,8.3|
2,1,7.4|
2,2,9.5|
];
constraint_x5_x1=[
0,0,3.8|
0,1,6.2|
0,2,8.1|
1,0,4.4|
1,1,1.8|
1,2,0.95|
2,0,7.8|
2,1,8.7|
2,2,8.3|
];
constraint_x5_x3=[
0,0,4.9|
0,1,7.6|
0,2,6.8|
1,0,1.2|
1,1,9.3|
1,2,6.7|
2,0,8.6|
2,1,1.2|
2,2,5.8|
];
constraint_x5_x4=[
0,0,2.8|
0,1,0.27|
0,2,5.1|
1,0,1.1|
1,1,3.9|
1,2,7.2|
2,0,5.6|
2,1,6.6|
2,2,9.3|
];
constraint_x6_x2=[
0,0,5.1|
0,1,6.7|
0,2,9.6|
1,0,9.2|
1,1,6.1|
1,2,6.6|
2,0,9.3|
2,1,8.6|
2,2,1.5|
];
constraint_x7_x2=[
0,0,0.048|
0,1,5.9|
0,2,3.7|
1,0,6.7|
1,1,8.6|
1,2,4.6|
2,0,8.9|
2,1,8.8|
2,2,9.7|
];
constraint_x7_x5=[
0,0,5.8|
0,1,2|
0,2,0.17|
1,0,9|
1,1,4.6|
1,2,9.1|
2,0,6.7|
2,1,0.89|
2,2,2.7|
];
constraint_x7_x6=[
0,0,9.4|
0,1,8|
0,2,9.1|
1,0,6.1|
1,1,1.4|
1,2,2.8|
2,0,3.4|
2,1,9.7|
2,2,4.3|
];
constraint_x8_x3=[
0,0,5.7|
0,1,1.8|
0,2,5.5|
1,0,6.8|
1,1,8.5|
1,2,9.5|
2,0,7.7|
2,1,0.27|
2,2,1.2|
];
constraint_x8_x5=[
0,0,2.5|
0,1,8.2|
0,2,5.2|
1,0,4.8|
1,1,5.9|
1,2,9.9|
2,0,0.75|
2,1,2.6|
2,2,3.8|
];
constraint_x9_x2=[
0,0,4.9|
0,1,0.57|
0,2,1.6|
1,0,2.2|
1,1,5.5|
1,2,2|
2,0,0.22|
2,1,3.2|
2,2,8.6|
];
constraint_x9_x4=[
0,0,4.1|
0,1,7.8|
0,2,5.2|
1,0,2.4|
1,1,6.8|
1,2,6.6|
2,0,9.8|
2,1,2.9|
2,2,9.9|
];
constraint_x9_x5=[
0,0,8.5|
0,1,8.9|
0,2,9.9|
1,0,2.9|
1,1,3.4|
1,2,4.7|
2,0,0.072|
2,1,6.3|
2,2,0.074|
];
constraint_x9_x8=[
0,0,3.4|
0,1,9.6|
0,2,0.52|
1,0,1.9|
1,1,3.6|
1,2,3.5|
2,0,6.2|
2,1,0.6|
2,2,5.1|
];
constraint_x10_x2=[
0,0,3.2|
0,1,6.6|
0,2,0.14|
1,0,8.2|
1,1,9.6|
1,2,5.9|
2,0,2.5|
2,1,1.1|
2,2,7.7|
];
constraint_x10_x4=[
0,0,1.1|
0,1,1.9|
0,2,8.8|
1,0,8.9|
1,1,8|
1,2,6.5|
2,0,1.1|
2,1,4.8|
2,2,10|
];
constraint_x10_x6=[
0,0,4.3|
0,1,6.9|
0,2,3.4|
1,0,4.9|
1,1,5.2|
1,2,2.1|
2,0,9.8|
2,1,1.5|
2,2,6.9|
];
constraint_x10_x7=[
0,0,4.1|
0,1,2.4|
0,2,0.23|
1,0,8.9|
1,1,2.3|
1,2,9.4|
2,0,0.12|
2,1,2.8|
2,2,3.3|
];
constraint_x10_x8=[
0,0,5.2|
0,1,3.6|
0,2,9.9|
1,0,4|
1,1,1.5|
1,2,2|
2,0,2.1|
2,1,2.1|
2,2,8.2|
];
constraint_x10_x9=[
0,0,8.6|
0,1,8.6|
0,2,0.99|
1,0,0.0096|
1,1,3.3|
1,2,0.72|
2,0,3.9|
2,1,4.1|
2,2,3.9|
];
constraint_x11_x4=[
0,0,6.1|
0,1,3.3|
0,2,5.6|
1,0,3.5|
1,1,6.2|
1,2,7.8|
2,0,0.2|
2,1,2.1|
2,2,2.1|
];
constraint_x11_x5=[
0,0,4.3|
0,1,2.9|
0,2,5.8|
1,0,8.7|
1,1,4.1|
1,2,8.7|
2,0,7.3|
2,1,3.9|
2,2,6.1|
];
constraint_x11_x8=[
0,0,5|
0,1,2|
0,2,9.1|
1,0,1.8|
1,1,9.6|
1,2,9.3|
2,0,6.8|
2,1,6.3|
2,2,0.4|
];
constraint_x11_x9=[
0,0,7.7|
0,1,1.5|
0,2,4.3|
1,0,5.3|
1,1,3.9|
1,2,4.2|
2,0,4.1|
2,1,1.3|
2,2,5.3|
];
constraint_x11_x10=[
0,0,7.6|
0,1,6.3|
0,2,4.5|
1,0,9.7|
1,1,7.4|
1,2,0.066|
2,0,6.4|
2,1,3.6|
2,2,0.68|
];
constraint_x12_x1=[
0,0,9.5|
0,1,0.086|
0,2,4.7|
1,0,5.4|
1,1,3.7|
1,2,4.6|
2,0,3.6|
2,1,2.2|
2,2,4.3|
];
constraint_x12_x3=[
0,0,2.4|
0,1,7.5|
0,2,6.6|
1,0,6.9|
1,1,7.5|
1,2,5.1|
2,0,5.2|
2,1,8|
2,2,3|
];
constraint_x12_x6=[
0,0,6.6|
0,1,8.1|
0,2,4.6|
1,0,2.1|
1,1,1.7|
1,2,1.3|
2,0,6.5|
2,1,4.5|
2,2,6.4|
];
constraint_x12_x10=[
0,0,2.7|
0,1,2.1|
0,2,4.4|
1,0,6.4|
1,1,6.9|
1,2,6.1|
2,0,3.9|
2,1,5.7|
2,2,3.1|
];
constraint_x1_y1=[
0,0,0.0066|
0,1,8.2|
0,2,2.6|
1,0,9.2|
1,1,7.5|
1,2,3.5|
2,0,8.6|
2,1,1.6|
2,2,5.3|
];
constraint_x2_y2=[
0,0,6.4|
0,1,2.7|
0,2,4.4|
1,0,3.4|
1,1,6.9|
1,2,8.9|
2,0,1.9|
2,1,6|
2,2,5.5|
];
constraint_x3_y3=[
0,0,8.6|
0,1,6.6|
0,2,5|
1,0,3.1|
1,1,0.97|
1,2,8.5|
2,0,7.1|
2,1,8.2|
2,2,5.1|
];
initial_distribution_y1=[0.52,0.4,0.08];
initial_distribution_y2=[0.4,0.083,0.52];
initial_distribution_y3=[0.3,0.37,0.33];
transition_y1=[
0.55,0.21,0.24|
0.14,0.43,0.43|
0.37,0.44,0.18|
];
transition_y2=[
0.64,0.11,0.25|
0.4,0.47,0.13|
0.17,0.37,0.46|
];
transition_y3=[
0.084,0.2,0.71|
0.46,0.06,0.48|
0.37,0.49,0.14|
];
